score_max=12;
nb_sommets=27;
voisins=[
{7,8,12,17,21,24,25},
{6,13,15,16,19,22,23},
{3,4,14,15,18,22},
{2,4,9,14,18},
{2,3,10,18,22},
{7,8,9,14,24},
{1,13,16,19,23},
{0,5,8,24,25},
{0,5,7,14,24},
{3,5,14,24},
{4,20,26},
{16,17,21},
{0,21,25},
{1,6},
{2,3,5,8,9,18,24},
{1,2,16,17,18,22,23},
{1,6,11,15,17,22,23},
{0,11,15,16,21,25},
{2,3,4,14,15,22},
{1,6,20,22,23,26},
{10,19,22,23,26},
{0,11,12,17,25},
{1,2,4,15,16,18,19,20,23,26},
{1,6,15,16,19,20,22,26},
{0,5,7,8,9,14},
{0,7,12,17,21},
{10,19,20,22,23}
];
poids=[3,3,3,3,3,3,3,3,3,3,3,3,3,3,2,2,2,2,2,2,2,2,1,1,1,1,1];